;; sat

(declare-const x1 sl.list.loc)
(declare-const x2 sl.list.loc)
(declare-const x3 sl.list.loc)
(declare-const x4 sl.list.loc)
(declare-const x5 sl.list.loc)
(declare-const x6 sl.list.loc)
(declare-const x7 sl.list.loc)
(declare-const x8 sl.list.loc)
(declare-const x9 sl.list.loc)
(declare-const x10 sl.list.loc)
(declare-const x11 sl.list.loc)
(declare-const x12 sl.list.loc)
(declare-const x13 sl.list.loc)
(declare-const x14 sl.list.loc)
(declare-const x15 sl.list.loc)
(declare-const x16 sl.list.loc)
(declare-const x17 sl.list.loc)
(declare-const x18 sl.list.loc)
(declare-const x20 sl.list.loc)

(assert (sl.sepcon (sl.sepcon (sl.sepcon (sl.sepcon (sl.sepcon (sl.sepcon (sl.sepcon (sl.sepcon (sl.sepcon (sl.sepcon (sl.sepcon (sl.list.eq sl.list.null sl.list.null)
 (sl.list.neq x6 x11)
)
 (sl.list.neq x6 x14)
)
 (sl.list.neq x11 x20)
)
 (sl.list.neq x3 x7)
)
 (sl.list.neq x7 x10)
)
 (sl.list.neq x7 x16)
)
 (sl.list.neq x9 x14)
)
 (sl.list.neq x12 x18)
)
 (sl.list.neq x2 x16)
)
 (sl.list.neq x5 x13)
)
 (sl.sepcon (sl.sepcon (sl.sepcon (sl.sepcon (sl.sepcon (sl.sepcon (sl.sepcon (sl.sepcon (sl.sepcon (sl.sepcon (sl.sepcon (sl.sepcon (sl.sepcon (sl.list.seg x5 x16)
 (sl.list.seg x13 x6)
)
 (sl.list.seg x18 x7)
)
 (sl.list.seg x18 x11)
)
 (sl.list.seg x4 x11)
)
 (sl.list.seg x20 x18)
)
 (sl.list.seg x15 x12)
)
 (sl.list.seg x15 x3)
)
 (sl.list.seg x12 x1)
)
 (sl.list.seg x17 x12)
)
 (sl.list.seg x2 x14)
)
 (sl.list.seg x9 x6)
)
 (sl.list.seg x3 x11)
)
 (sl.list.seg x11 x8)
)
)
)

